NAME : LPS-n10-m71
COMMENT : (Lartu-Peter-Santi Plot, instance 2871 out of 39200. 10 customers.)
TYPE : CVRP
DIMENSION : 10
EDGE_WEIGHT_TYPE : EUC_2D
CAPACITY : 80
NODE_COORD_SECTION
 1 71 8
 2 64 98
 3 53 72
 4 2 17
 5 85 25
 6 26 11
 7 97 31
 8 20 69
 9 53 89
 10 100 30
DEMAND_SECTION
1 0
2 22
3 42
4 43
5 24
6 46
7 10
8 4
9 2
10 43
DEPOT_SECTION
 1
 -1
EOF
